(set-info :smt-lib-version 2.6)
(set-logic QF_UF)
(set-info :source |
CADE ATP System competition. See http://www.cs.miami.edu/~tptp/CASC
 for more information. 

This benchmark was obtained by trying to find a finite model of a first-order 
formula (Albert Oliveras).
|)
(set-info :category "crafted")
(set-info :status unsat)
(declare-sort U 0)
(declare-fun p1 (U U) Bool)
(declare-fun p2 (U U) Bool)
(declare-fun c17 () U)
(declare-fun p12 (U) Bool)
(declare-fun c18 () U)
(declare-fun f5 (U U) U)
(declare-fun c19 () U)
(declare-fun f16 (U) U)
(declare-fun c15 () U)
(declare-fun p4 (U U) Bool)
(declare-fun p14 (U) Bool)
(declare-fun p13 (U U) Bool)
(declare-fun p3 (U U) Bool)
(declare-fun c20 () U)
(declare-fun f9 (U U) U)
(declare-fun f11 (U U) U)
(declare-fun f6 (U U) U)
(declare-fun f8 (U U) U)
(declare-fun f10 (U U) U)
(declare-fun f7 (U U) U)
(declare-fun c21 () U)
(declare-fun c_0 () U)
(declare-fun c_1 () U)
(declare-fun c_2 () U)
(assert (let ((?v_19 (p1 c_0 c_0)) (?v_18 (= c_0 c_0)) (?v_111 (p2 c_0 c_0)) (?v_21 (p1 c_0 c_1)) (?v_20 (= c_0 c_1)) (?v_113 (p2 c_0 c_1)) (?v_23 (p1 c_0 c_2)) (?v_22 (= c_0 c_2)) (?v_115 (p2 c_0 c_2)) (?v_25 (p1 c_1 c_0)) (?v_24 (= c_1 c_0)) (?v_117 (p2 c_1 c_0)) (?v_27 (p1 c_1 c_1)) (?v_26 (= c_1 c_1)) (?v_119 (p2 c_1 c_1)) (?v_29 (p1 c_1 c_2)) (?v_28 (= c_1 c_2)) (?v_121 (p2 c_1 c_2)) (?v_31 (p1 c_2 c_0)) (?v_30 (= c_2 c_0)) (?v_123 (p2 c_2 c_0)) (?v_33 (p1 c_2 c_1)) (?v_32 (= c_2 c_1)) (?v_125 (p2 c_2 c_1)) (?v_35 (p1 c_2 c_2)) (?v_34 (= c_2 c_2)) (?v_127 (p2 c_2 c_2)) (?v_183 (f5 c17 c19)) (?v_4 (f16 c_0))) (let ((?v_0 (f5 c_0 ?v_4))) (let ((?v_15 (p1 ?v_0 c15)) (?v_3 (p12 c_0)) (?v_250 (p4 ?v_0 c15)) (?v_292 (p14 c_0))) (let ((?v_5 (not ?v_292)) (?v_8 (f16 c_1))) (let ((?v_1 (f5 c_1 ?v_8))) (let ((?v_16 (p1 ?v_1 c15)) (?v_7 (p12 c_1)) (?v_252 (p4 ?v_1 c15)) (?v_293 (p14 c_1))) (let ((?v_9 (not ?v_293)) (?v_12 (f16 c_2))) (let ((?v_2 (f5 c_2 ?v_12))) (let ((?v_17 (p1 ?v_2 c15)) (?v_11 (p12 c_2)) (?v_254 (p4 ?v_2 c15)) (?v_294 (p14 c_2))) (let ((?v_13 (not ?v_294)) (?v_6 (p13 c_0 ?v_4))) (let ((?v_251 (not ?v_6)) (?v_10 (p13 c_1 ?v_8))) (let ((?v_253 (not ?v_10)) (?v_14 (p13 c_2 ?v_12))) (let ((?v_255 (not ?v_14)) (?v_36 (not ?v_18)) (?v_37 (not ?v_20)) (?v_38 (not ?v_22)) (?v_39 (not ?v_24)) (?v_40 (not ?v_26)) (?v_41 (not ?v_28)) (?v_42 (not ?v_30)) (?v_43 (not ?v_32)) (?v_44 (not ?v_34)) (?v_72 (p3 c_0 c_0)) (?v_73 (p3 c_0 c_1)) (?v_74 (p3 c_0 c_2)) (?v_75 (p3 c_1 c_0)) (?v_76 (p3 c_1 c_1)) (?v_77 (p3 c_1 c_2)) (?v_78 (p3 c_2 c_0)) (?v_79 (p3 c_2 c_1)) (?v_80 (p3 c_2 c_2)) (?v_249 (f5 c17 c20)) (?v_45 (f9 c_0 c_0)) (?v_46 (f11 c_0 c_0)) (?v_47 (f6 c_0 c_0))) (let ((?v_195 (p4 ?v_47 ?v_47)) (?v_48 (f9 c_0 c_1)) (?v_49 (f11 c_0 c_1)) (?v_50 (f6 c_0 c_1))) (let ((?v_201 (p4 ?v_47 ?v_50)) (?v_51 (f9 c_0 c_2)) (?v_52 (f11 c_0 c_2)) (?v_53 (f6 c_0 c_2))) (let ((?v_207 (p4 ?v_47 ?v_53)) (?v_197 (p4 ?v_50 ?v_47)) (?v_203 (p4 ?v_50 ?v_50)) (?v_209 (p4 ?v_50 ?v_53)) (?v_199 (p4 ?v_53 ?v_47)) (?v_205 (p4 ?v_53 ?v_50)) (?v_211 (p4 ?v_53 ?v_53)) (?v_54 (f9 c_1 c_0)) (?v_55 (f11 c_1 c_0)) (?v_56 (f6 c_1 c_0))) (let ((?v_213 (p4 ?v_56 ?v_56)) (?v_57 (f9 c_1 c_1)) (?v_58 (f11 c_1 c_1)) (?v_59 (f6 c_1 c_1))) (let ((?v_219 (p4 ?v_56 ?v_59)) (?v_60 (f9 c_1 c_2)) (?v_61 (f11 c_1 c_2)) (?v_62 (f6 c_1 c_2))) (let ((?v_225 (p4 ?v_56 ?v_62)) (?v_215 (p4 ?v_59 ?v_56)) (?v_221 (p4 ?v_59 ?v_59)) (?v_227 (p4 ?v_59 ?v_62)) (?v_217 (p4 ?v_62 ?v_56)) (?v_223 (p4 ?v_62 ?v_59)) (?v_229 (p4 ?v_62 ?v_62)) (?v_63 (f9 c_2 c_0)) (?v_64 (f11 c_2 c_0)) (?v_65 (f6 c_2 c_0))) (let ((?v_231 (p4 ?v_65 ?v_65)) (?v_66 (f9 c_2 c_1)) (?v_67 (f11 c_2 c_1)) (?v_68 (f6 c_2 c_1))) (let ((?v_237 (p4 ?v_65 ?v_68)) (?v_69 (f9 c_2 c_2)) (?v_70 (f11 c_2 c_2)) (?v_71 (f6 c_2 c_2))) (let ((?v_243 (p4 ?v_65 ?v_71)) (?v_233 (p4 ?v_68 ?v_65)) (?v_239 (p4 ?v_68 ?v_68)) (?v_245 (p4 ?v_68 ?v_71)) (?v_235 (p4 ?v_71 ?v_65)) (?v_241 (p4 ?v_71 ?v_68)) (?v_247 (p4 ?v_71 ?v_71)) (?v_112 (p4 c_0 c_0)) (?v_114 (p4 c_0 c_1)) (?v_116 (p4 c_0 c_2)) (?v_118 (p4 c_1 c_0)) (?v_120 (p4 c_1 c_1)) (?v_122 (p4 c_1 c_2)) (?v_124 (p4 c_2 c_0)) (?v_126 (p4 c_2 c_1)) (?v_128 (p4 c_2 c_2)) (?v_81 (not ?v_3)) (?v_84 (p13 c_0 c_0)) (?v_129 (f5 c_0 c_0)) (?v_87 (p13 c_0 c_1)) (?v_130 (f5 c_0 c_1)) (?v_88 (p13 c_0 c_2)) (?v_131 (f5 c_0 c_2)) (?v_82 (not ?v_7)) (?v_93 (p13 c_1 c_0)) (?v_132 (f5 c_1 c_0)) (?v_96 (p13 c_1 c_1)) (?v_133 (f5 c_1 c_1)) (?v_97 (p13 c_1 c_2)) (?v_134 (f5 c_1 c_2)) (?v_83 (not ?v_11)) (?v_102 (p13 c_2 c_0)) (?v_135 (f5 c_2 c_0)) (?v_105 (p13 c_2 c_1)) (?v_136 (f5 c_2 c_1)) (?v_106 (p13 c_2 c_2)) (?v_137 (f5 c_2 c_2)) (?v_85 (f8 c_0 c_0))) (let ((?v_196 (p2 ?v_85 ?v_85)) (?v_86 (f10 c_0 c_0))) (let ((?v_139 (p4 ?v_86 ?v_86)) (?v_89 (f8 c_0 c_1))) (let ((?v_202 (p2 ?v_85 ?v_89)) (?v_90 (f10 c_0 c_1))) (let ((?v_140 (p4 ?v_86 ?v_90)) (?v_91 (f8 c_0 c_2))) (let ((?v_208 (p2 ?v_85 ?v_91)) (?v_92 (f10 c_0 c_2))) (let ((?v_141 (p4 ?v_86 ?v_92)) (?v_198 (p2 ?v_89 ?v_85)) (?v_143 (p4 ?v_90 ?v_86)) (?v_204 (p2 ?v_89 ?v_89)) (?v_144 (p4 ?v_90 ?v_90)) (?v_210 (p2 ?v_89 ?v_91)) (?v_146 (p4 ?v_90 ?v_92)) (?v_200 (p2 ?v_91 ?v_85)) (?v_147 (p4 ?v_92 ?v_86)) (?v_206 (p2 ?v_91 ?v_89)) (?v_148 (p4 ?v_92 ?v_90)) (?v_212 (p2 ?v_91 ?v_91)) (?v_149 (p4 ?v_92 ?v_92)) (?v_94 (f8 c_1 c_0))) (let ((?v_214 (p2 ?v_94 ?v_94)) (?v_95 (f10 c_1 c_0))) (let ((?v_151 (p4 ?v_95 ?v_95)) (?v_98 (f8 c_1 c_1))) (let ((?v_220 (p2 ?v_94 ?v_98)) (?v_99 (f10 c_1 c_1))) (let ((?v_152 (p4 ?v_95 ?v_99)) (?v_100 (f8 c_1 c_2))) (let ((?v_226 (p2 ?v_94 ?v_100)) (?v_101 (f10 c_1 c_2))) (let ((?v_153 (p4 ?v_95 ?v_101)) (?v_216 (p2 ?v_98 ?v_94)) (?v_155 (p4 ?v_99 ?v_95)) (?v_222 (p2 ?v_98 ?v_98)) (?v_156 (p4 ?v_99 ?v_99)) (?v_228 (p2 ?v_98 ?v_100)) (?v_158 (p4 ?v_99 ?v_101)) (?v_218 (p2 ?v_100 ?v_94)) (?v_159 (p4 ?v_101 ?v_95)) (?v_224 (p2 ?v_100 ?v_98)) (?v_160 (p4 ?v_101 ?v_99)) (?v_230 (p2 ?v_100 ?v_100)) (?v_161 (p4 ?v_101 ?v_101)) (?v_103 (f8 c_2 c_0))) (let ((?v_232 (p2 ?v_103 ?v_103)) (?v_104 (f10 c_2 c_0))) (let ((?v_163 (p4 ?v_104 ?v_104)) (?v_107 (f8 c_2 c_1))) (let ((?v_238 (p2 ?v_103 ?v_107)) (?v_108 (f10 c_2 c_1))) (let ((?v_164 (p4 ?v_104 ?v_108)) (?v_109 (f8 c_2 c_2))) (let ((?v_244 (p2 ?v_103 ?v_109)) (?v_110 (f10 c_2 c_2))) (let ((?v_165 (p4 ?v_104 ?v_110)) (?v_234 (p2 ?v_107 ?v_103)) (?v_167 (p4 ?v_108 ?v_104)) (?v_240 (p2 ?v_107 ?v_107)) (?v_168 (p4 ?v_108 ?v_108)) (?v_246 (p2 ?v_107 ?v_109)) (?v_170 (p4 ?v_108 ?v_110)) (?v_236 (p2 ?v_109 ?v_103)) (?v_171 (p4 ?v_110 ?v_104)) (?v_242 (p2 ?v_109 ?v_107)) (?v_172 (p4 ?v_110 ?v_108)) (?v_248 (p2 ?v_109 ?v_109)) (?v_173 (p4 ?v_110 ?v_110)) (?v_174 (not ?v_84)) (?v_175 (not ?v_87)) (?v_176 (not ?v_88)) (?v_177 (not ?v_93)) (?v_178 (not ?v_96)) (?v_179 (not ?v_97)) (?v_180 (not ?v_102)) (?v_181 (not ?v_105)) (?v_182 (not ?v_106)) (?v_138 (f7 c_0 c_0)) (?v_142 (f7 c_0 c_1)) (?v_145 (f7 c_0 c_2)) (?v_150 (f7 c_1 c_0)) (?v_154 (f7 c_1 c_1)) (?v_157 (f7 c_1 c_2)) (?v_162 (f7 c_2 c_0)) (?v_166 (f7 c_2 c_1)) (?v_169 (f7 c_2 c_2)) (?v_323 (= ?v_85 ?v_85)) (?v_325 (= ?v_85 ?v_89)) (?v_327 (= ?v_85 ?v_91)) (?v_329 (= ?v_89 ?v_85)) (?v_331 (= ?v_89 ?v_89)) (?v_333 (= ?v_89 ?v_91)) (?v_335 (= ?v_91 ?v_85)) (?v_337 (= ?v_91 ?v_89)) (?v_339 (= ?v_91 ?v_91)) (?v_341 (= ?v_94 ?v_94)) (?v_343 (= ?v_94 ?v_98)) (?v_345 (= ?v_94 ?v_100)) (?v_347 (= ?v_98 ?v_94)) (?v_349 (= ?v_98 ?v_98)) (?v_351 (= ?v_98 ?v_100)) (?v_353 (= ?v_100 ?v_94)) (?v_355 (= ?v_100 ?v_98)) (?v_357 (= ?v_100 ?v_100)) (?v_359 (= ?v_103 ?v_103)) (?v_361 (= ?v_103 ?v_107)) (?v_363 (= ?v_103 ?v_109)) (?v_365 (= ?v_107 ?v_103)) (?v_367 (= ?v_107 ?v_107)) (?v_369 (= ?v_107 ?v_109)) (?v_371 (= ?v_109 ?v_103)) (?v_373 (= ?v_109 ?v_107)) (?v_375 (= ?v_109 ?v_109)) (?v_184 (f8 c17 c20)) (?v_185 (f8 c17 c19)) (?v_186 (not ?v_112)) (?v_187 (not ?v_114)) (?v_189 (not ?v_118)) (?v_188 (not ?v_116)) (?v_192 (not ?v_124)) (?v_190 (not ?v_120)) (?v_193 (not ?v_126)) (?v_191 (not ?v_122)) (?v_194 (not ?v_128)) (?v_265 (p4 ?v_45 ?v_45)) (?v_266 (p4 ?v_45 ?v_48)) (?v_267 (p4 ?v_45 ?v_51)) (?v_268 (p4 ?v_48 ?v_45)) (?v_269 (p4 ?v_48 ?v_48)) (?v_270 (p4 ?v_48 ?v_51)) (?v_271 (p4 ?v_51 ?v_45)) (?v_272 (p4 ?v_51 ?v_48)) (?v_273 (p4 ?v_51 ?v_51)) (?v_274 (p4 ?v_54 ?v_54)) (?v_275 (p4 ?v_54 ?v_57)) (?v_276 (p4 ?v_54 ?v_60)) (?v_277 (p4 ?v_57 ?v_54)) (?v_278 (p4 ?v_57 ?v_57)) (?v_279 (p4 ?v_57 ?v_60)) (?v_280 (p4 ?v_60 ?v_54)) (?v_281 (p4 ?v_60 ?v_57)) (?v_282 (p4 ?v_60 ?v_60)) (?v_283 (p4 ?v_63 ?v_63)) (?v_284 (p4 ?v_63 ?v_66)) (?v_285 (p4 ?v_63 ?v_69)) (?v_286 (p4 ?v_66 ?v_63)) (?v_287 (p4 ?v_66 ?v_66)) (?v_288 (p4 ?v_66 ?v_69)) (?v_289 (p4 ?v_69 ?v_63)) (?v_290 (p4 ?v_69 ?v_66)) (?v_291 (p4 ?v_69 ?v_69)) (?v_256 (not ?v_111)) (?v_257 (not ?v_113)) (?v_258 (not ?v_115)) (?v_259 (not ?v_117)) (?v_260 (not ?v_119)) (?v_261 (not ?v_121)) (?v_262 (not ?v_123)) (?v_263 (not ?v_125)) (?v_264 (not ?v_127)) (?v_322 (= ?v_47 ?v_47)) (?v_295 (= ?v_46 ?v_46)) (?v_324 (= ?v_47 ?v_50)) (?v_296 (= ?v_46 ?v_49)) (?v_326 (= ?v_47 ?v_53)) (?v_297 (= ?v_46 ?v_52)) (?v_328 (= ?v_50 ?v_47)) (?v_298 (= ?v_49 ?v_46)) (?v_330 (= ?v_50 ?v_50)) (?v_299 (= ?v_49 ?v_49)) (?v_332 (= ?v_50 ?v_53)) (?v_300 (= ?v_49 ?v_52)) (?v_334 (= ?v_53 ?v_47)) (?v_301 (= ?v_52 ?v_46)) (?v_336 (= ?v_53 ?v_50)) (?v_302 (= ?v_52 ?v_49)) (?v_338 (= ?v_53 ?v_53)) (?v_303 (= ?v_52 ?v_52)) (?v_340 (= ?v_56 ?v_56)) (?v_304 (= ?v_55 ?v_55)) (?v_342 (= ?v_56 ?v_59)) (?v_305 (= ?v_55 ?v_58)) (?v_344 (= ?v_56 ?v_62)) (?v_306 (= ?v_55 ?v_61)) (?v_346 (= ?v_59 ?v_56)) (?v_307 (= ?v_58 ?v_55)) (?v_348 (= ?v_59 ?v_59)) (?v_308 (= ?v_58 ?v_58)) (?v_350 (= ?v_59 ?v_62)) (?v_309 (= ?v_58 ?v_61)) (?v_352 (= ?v_62 ?v_56)) (?v_310 (= ?v_61 ?v_55)) (?v_354 (= ?v_62 ?v_59)) (?v_311 (= ?v_61 ?v_58)) (?v_356 (= ?v_62 ?v_62)) (?v_312 (= ?v_61 ?v_61)) (?v_358 (= ?v_65 ?v_65)) (?v_313 (= ?v_64 ?v_64)) (?v_360 (= ?v_65 ?v_68)) (?v_314 (= ?v_64 ?v_67)) (?v_362 (= ?v_65 ?v_71)) (?v_315 (= ?v_64 ?v_70)) (?v_364 (= ?v_68 ?v_65)) (?v_316 (= ?v_67 ?v_64)) (?v_366 (= ?v_68 ?v_68)) (?v_317 (= ?v_67 ?v_67)) (?v_368 (= ?v_68 ?v_71)) (?v_318 (= ?v_67 ?v_70)) (?v_370 (= ?v_71 ?v_65)) (?v_319 (= ?v_70 ?v_64)) (?v_372 (= ?v_71 ?v_68)) (?v_320 (= ?v_70 ?v_67)) (?v_374 (= ?v_71 ?v_71)) (?v_321 (= ?v_70 ?v_70)) (?v_376 (= ?v_86 ?v_86)) (?v_378 (= ?v_86 ?v_90)) (?v_380 (= ?v_86 ?v_92)) (?v_382 (= ?v_90 ?v_86)) (?v_384 (= ?v_90 ?v_90)) (?v_386 (= ?v_90 ?v_92)) (?v_388 (= ?v_92 ?v_86)) (?v_390 (= ?v_92 ?v_90)) (?v_392 (= ?v_92 ?v_92)) (?v_394 (= ?v_95 ?v_95)) (?v_396 (= ?v_95 ?v_99)) (?v_398 (= ?v_95 ?v_101)) (?v_400 (= ?v_99 ?v_95)) (?v_402 (= ?v_99 ?v_99)) (?v_404 (= ?v_99 ?v_101)) (?v_406 (= ?v_101 ?v_95)) (?v_408 (= ?v_101 ?v_99)) (?v_410 (= ?v_101 ?v_101)) (?v_412 (= ?v_104 ?v_104)) (?v_414 (= ?v_104 ?v_108)) (?v_416 (= ?v_104 ?v_110)) (?v_418 (= ?v_108 ?v_104)) (?v_420 (= ?v_108 ?v_108)) (?v_422 (= ?v_108 ?v_110)) (?v_424 (= ?v_110 ?v_104)) (?v_426 (= ?v_110 ?v_108)) (?v_428 (= ?v_110 ?v_110))) (let ((?v_377 (= ?v_138 ?v_138)) (?v_379 (= ?v_138 ?v_142)) (?v_381 (= ?v_138 ?v_145)) (?v_383 (= ?v_142 ?v_138)) (?v_385 (= ?v_142 ?v_142)) (?v_387 (= ?v_142 ?v_145)) (?v_389 (= ?v_145 ?v_138)) (?v_391 (= ?v_145 ?v_142)) (?v_393 (= ?v_145 ?v_145)) (?v_395 (= ?v_150 ?v_150)) (?v_397 (= ?v_150 ?v_154)) (?v_399 (= ?v_150 ?v_157)) (?v_401 (= ?v_154 ?v_150)) (?v_403 (= ?v_154 ?v_154)) (?v_405 (= ?v_154 ?v_157)) (?v_407 (= ?v_157 ?v_150)) (?v_409 (= ?v_157 ?v_154)) (?v_411 (= ?v_157 ?v_157)) (?v_413 (= ?v_162 ?v_162)) (?v_415 (= ?v_162 ?v_166)) (?v_417 (= ?v_162 ?v_169)) (?v_419 (= ?v_166 ?v_162)) (?v_421 (= ?v_166 ?v_166)) (?v_423 (= ?v_166 ?v_169)) (?v_425 (= ?v_169 ?v_162)) (?v_427 (= ?v_169 ?v_166)) (?v_429 (= ?v_169 ?v_169))) (and (distinct c_0 c_1 c_2) (or (not ?v_19) ?v_18 ?v_111) (or (not ?v_21) ?v_20 ?v_113) (or (not ?v_23) ?v_22 ?v_115) (or (not ?v_25) ?v_24 ?v_117) (or (not ?v_27) ?v_26 ?v_119) (or (not ?v_29) ?v_28 ?v_121) (or (not ?v_31) ?v_30 ?v_123) (or (not ?v_33) ?v_32 ?v_125) (or (not ?v_35) ?v_34 ?v_127) (p12 c17) (p1 (f5 c17 c18) ?v_183) (or ?v_15 ?v_3 ?v_250 ?v_5) (or ?v_16 ?v_7 ?v_252 ?v_9) (or ?v_17 ?v_11 ?v_254 ?v_13) (or ?v_3 ?v_251 ?v_5 ?v_6) (or ?v_7 ?v_253 ?v_9 ?v_10) (or ?v_11 ?v_255 ?v_13 ?v_14) (or ?v_15 ?v_6 ?v_3 ?v_5) (or ?v_16 ?v_10 ?v_7 ?v_9) (or ?v_17 ?v_14 ?v_11 ?v_13) (or ?v_36 ?v_19) (or ?v_37 ?v_21) (or ?v_38 ?v_23) (or ?v_39 ?v_25) (or ?v_40 ?v_27) (or ?v_41 ?v_29) (or ?v_42 ?v_31) (or ?v_43 ?v_33) (or ?v_44 ?v_35) (or ?v_72 ?v_36) (or ?v_73 ?v_37) (or ?v_74 ?v_38) (or ?v_75 ?v_39) (or ?v_76 ?v_40) (or ?v_77 ?v_41) (or ?v_78 ?v_42) (or ?v_79 ?v_43) (or ?v_80 ?v_44) (p4 ?v_249 c15) (or (not (p1 ?v_45 ?v_45)) ?v_5 (not (p4 ?v_46 ?v_46)) ?v_195) (or (not (p1 ?v_45 ?v_48)) ?v_5 (not (p4 ?v_46 ?v_49)) ?v_201) (or (not (p1 ?v_45 ?v_51)) ?v_5 (not (p4 ?v_46 ?v_52)) ?v_207) (or (not (p1 ?v_48 ?v_45)) ?v_5 (not (p4 ?v_49 ?v_46)) ?v_197) (or (not (p1 ?v_48 ?v_48)) ?v_5 (not (p4 ?v_49 ?v_49)) ?v_203) (or (not (p1 ?v_48 ?v_51)) ?v_5 (not (p4 ?v_49 ?v_52)) ?v_209) (or (not (p1 ?v_51 ?v_45)) ?v_5 (not (p4 ?v_52 ?v_46)) ?v_199) (or (not (p1 ?v_51 ?v_48)) ?v_5 (not (p4 ?v_52 ?v_49)) ?v_205) (or (not (p1 ?v_51 ?v_51)) ?v_5 (not (p4 ?v_52 ?v_52)) ?v_211) (or (not (p1 ?v_54 ?v_54)) ?v_9 (not (p4 ?v_55 ?v_55)) ?v_213) (or (not (p1 ?v_54 ?v_57)) ?v_9 (not (p4 ?v_55 ?v_58)) ?v_219) (or (not (p1 ?v_54 ?v_60)) ?v_9 (not (p4 ?v_55 ?v_61)) ?v_225) (or (not (p1 ?v_57 ?v_54)) ?v_9 (not (p4 ?v_58 ?v_55)) ?v_215) (or (not (p1 ?v_57 ?v_57)) ?v_9 (not (p4 ?v_58 ?v_58)) ?v_221) (or (not (p1 ?v_57 ?v_60)) ?v_9 (not (p4 ?v_58 ?v_61)) ?v_227) (or (not (p1 ?v_60 ?v_54)) ?v_9 (not (p4 ?v_61 ?v_55)) ?v_217) (or (not (p1 ?v_60 ?v_57)) ?v_9 (not (p4 ?v_61 ?v_58)) ?v_223) (or (not (p1 ?v_60 ?v_60)) ?v_9 (not (p4 ?v_61 ?v_61)) ?v_229) (or (not (p1 ?v_63 ?v_63)) ?v_13 (not (p4 ?v_64 ?v_64)) ?v_231) (or (not (p1 ?v_63 ?v_66)) ?v_13 (not (p4 ?v_64 ?v_67)) ?v_237) (or (not (p1 ?v_63 ?v_69)) ?v_13 (not (p4 ?v_64 ?v_70)) ?v_243) (or (not (p1 ?v_66 ?v_63)) ?v_13 (not (p4 ?v_67 ?v_64)) ?v_233) (or (not (p1 ?v_66 ?v_66)) ?v_13 (not (p4 ?v_67 ?v_67)) ?v_239) (or (not (p1 ?v_66 ?v_69)) ?v_13 (not (p4 ?v_67 ?v_70)) ?v_245) (or (not (p1 ?v_69 ?v_63)) ?v_13 (not (p4 ?v_70 ?v_64)) ?v_235) (or (not (p1 ?v_69 ?v_66)) ?v_13 (not (p4 ?v_70 ?v_67)) ?v_241) (or (not (p1 ?v_69 ?v_69)) ?v_13 (not (p4 ?v_70 ?v_70)) ?v_247) (or ?v_112 (not ?v_72) ?v_18) (or ?v_114 (not ?v_73) ?v_20) (or ?v_116 (not ?v_74) ?v_22) (or ?v_118 (not ?v_75) ?v_24) (or ?v_120 (not ?v_76) ?v_26) (or ?v_122 (not ?v_77) ?v_28) (or ?v_124 (not ?v_78) ?v_30) (or ?v_126 (not ?v_79) ?v_32) (or ?v_128 (not ?v_80) ?v_34) (or ?v_81 ?v_84 (not (p1 ?v_129 c15))) (or ?v_81 ?v_87 (not (p1 ?v_130 c15))) (or ?v_81 ?v_88 (not (p1 ?v_131 c15))) (or ?v_82 ?v_93 (not (p1 ?v_132 c15))) (or ?v_82 ?v_96 (not (p1 ?v_133 c15))) (or ?v_82 ?v_97 (not (p1 ?v_134 c15))) (or ?v_83 ?v_102 (not (p1 ?v_135 c15))) (or ?v_83 ?v_105 (not (p1 ?v_136 c15))) (or ?v_83 ?v_106 (not (p1 ?v_137 c15))) (or ?v_5 ?v_84 ?v_196 (not ?v_139) (not (p3 ?v_47 ?v_47)) ?v_84) (or ?v_5 ?v_84 ?v_202 (not ?v_140) (not (p3 ?v_47 ?v_50)) ?v_87) (or ?v_5 ?v_84 ?v_208 (not ?v_141) (not (p3 ?v_47 ?v_53)) ?v_88) (or ?v_5 ?v_87 ?v_198 (not ?v_143) (not (p3 ?v_50 ?v_47)) ?v_84) (or ?v_5 ?v_87 ?v_204 (not ?v_144) (not (p3 ?v_50 ?v_50)) ?v_87) (or ?v_5 ?v_87 ?v_210 (not ?v_146) (not (p3 ?v_50 ?v_53)) ?v_88) (or ?v_5 ?v_88 ?v_200 (not ?v_147) (not (p3 ?v_53 ?v_47)) ?v_84) (or ?v_5 ?v_88 ?v_206 (not ?v_148) (not (p3 ?v_53 ?v_50)) ?v_87) (or ?v_5 ?v_88 ?v_212 (not ?v_149) (not (p3 ?v_53 ?v_53)) ?v_88) (or ?v_9 ?v_93 ?v_214 (not ?v_151) (not (p3 ?v_56 ?v_56)) ?v_93) (or ?v_9 ?v_93 ?v_220 (not ?v_152) (not (p3 ?v_56 ?v_59)) ?v_96) (or ?v_9 ?v_93 ?v_226 (not ?v_153) (not (p3 ?v_56 ?v_62)) ?v_97) (or ?v_9 ?v_96 ?v_216 (not ?v_155) (not (p3 ?v_59 ?v_56)) ?v_93) (or ?v_9 ?v_96 ?v_222 (not ?v_156) (not (p3 ?v_59 ?v_59)) ?v_96) (or ?v_9 ?v_96 ?v_228 (not ?v_158) (not (p3 ?v_59 ?v_62)) ?v_97) (or ?v_9 ?v_97 ?v_218 (not ?v_159) (not (p3 ?v_62 ?v_56)) ?v_93) (or ?v_9 ?v_97 ?v_224 (not ?v_160) (not (p3 ?v_62 ?v_59)) ?v_96) (or ?v_9 ?v_97 ?v_230 (not ?v_161) (not (p3 ?v_62 ?v_62)) ?v_97) (or ?v_13 ?v_102 ?v_232 (not ?v_163) (not (p3 ?v_65 ?v_65)) ?v_102) (or ?v_13 ?v_102 ?v_238 (not ?v_164) (not (p3 ?v_65 ?v_68)) ?v_105) (or ?v_13 ?v_102 ?v_244 (not ?v_165) (not (p3 ?v_65 ?v_71)) ?v_106) (or ?v_13 ?v_105 ?v_234 (not ?v_167) (not (p3 ?v_68 ?v_65)) ?v_102) (or ?v_13 ?v_105 ?v_240 (not ?v_168) (not (p3 ?v_68 ?v_68)) ?v_105) (or ?v_13 ?v_105 ?v_246 (not ?v_170) (not (p3 ?v_68 ?v_71)) ?v_106) (or ?v_13 ?v_106 ?v_236 (not ?v_171) (not (p3 ?v_71 ?v_65)) ?v_102) (or ?v_13 ?v_106 ?v_242 (not ?v_172) (not (p3 ?v_71 ?v_68)) ?v_105) (or ?v_13 ?v_106 ?v_248 (not ?v_173) (not (p3 ?v_71 ?v_71)) ?v_106) (or ?v_18 ?v_111 ?v_112) (or ?v_20 ?v_113 ?v_114) (or ?v_22 ?v_115 ?v_116) (or ?v_24 ?v_117 ?v_118) (or ?v_26 ?v_119 ?v_120) (or ?v_28 ?v_121 ?v_122) (or ?v_30 ?v_123 ?v_124) (or ?v_32 ?v_125 ?v_126) (or ?v_34 ?v_127 ?v_128) (or (not (p4 ?v_129 c15)) ?v_81 ?v_174) (or (not (p4 ?v_130 c15)) ?v_81 ?v_175) (or (not (p4 ?v_131 c15)) ?v_81 ?v_176) (or (not (p4 ?v_132 c15)) ?v_82 ?v_177) (or (not (p4 ?v_133 c15)) ?v_82 ?v_178) (or (not (p4 ?v_134 c15)) ?v_82 ?v_179) (or (not (p4 ?v_135 c15)) ?v_83 ?v_180) (or (not (p4 ?v_136 c15)) ?v_83 ?v_181) (or (not (p4 ?v_137 c15)) ?v_83 ?v_182) (or (not (p4 ?v_138 ?v_138)) ?v_139 ?v_5) (or (not (p4 ?v_138 ?v_142)) ?v_140 ?v_5) (or (not (p4 ?v_138 ?v_145)) ?v_141 ?v_5) (or (not (p4 ?v_142 ?v_138)) ?v_143 ?v_5) (or (not (p4 ?v_142 ?v_142)) ?v_144 ?v_5) (or (not (p4 ?v_142 ?v_145)) ?v_146 ?v_5) (or (not (p4 ?v_145 ?v_138)) ?v_147 ?v_5) (or (not (p4 ?v_145 ?v_142)) ?v_148 ?v_5) (or (not (p4 ?v_145 ?v_145)) ?v_149 ?v_5) (or (not (p4 ?v_150 ?v_150)) ?v_151 ?v_9) (or (not (p4 ?v_150 ?v_154)) ?v_152 ?v_9) (or (not (p4 ?v_150 ?v_157)) ?v_153 ?v_9) (or (not (p4 ?v_154 ?v_150)) ?v_155 ?v_9) (or (not (p4 ?v_154 ?v_154)) ?v_156 ?v_9) (or (not (p4 ?v_154 ?v_157)) ?v_158 ?v_9) (or (not (p4 ?v_157 ?v_150)) ?v_159 ?v_9) (or (not (p4 ?v_157 ?v_154)) ?v_160 ?v_9) (or (not (p4 ?v_157 ?v_157)) ?v_161 ?v_9) (or (not (p4 ?v_162 ?v_162)) ?v_163 ?v_13) (or (not (p4 ?v_162 ?v_166)) ?v_164 ?v_13) (or (not (p4 ?v_162 ?v_169)) ?v_165 ?v_13) (or (not (p4 ?v_166 ?v_162)) ?v_167 ?v_13) (or (not (p4 ?v_166 ?v_166)) ?v_168 ?v_13) (or (not (p4 ?v_166 ?v_169)) ?v_170 ?v_13) (or (not (p4 ?v_169 ?v_162)) ?v_171 ?v_13) (or (not (p4 ?v_169 ?v_166)) ?v_172 ?v_13) (or (not (p4 ?v_169 ?v_169)) ?v_173 ?v_13) (or ?v_323 ?v_174 ?v_5 ?v_174) (or ?v_325 ?v_175 ?v_5 ?v_174) (or ?v_327 ?v_176 ?v_5 ?v_174) (or ?v_329 ?v_174 ?v_5 ?v_175) (or ?v_331 ?v_175 ?v_5 ?v_175) (or ?v_333 ?v_176 ?v_5 ?v_175) (or ?v_335 ?v_174 ?v_5 ?v_176) (or ?v_337 ?v_175 ?v_5 ?v_176) (or ?v_339 ?v_176 ?v_5 ?v_176) (or ?v_341 ?v_177 ?v_9 ?v_177) (or ?v_343 ?v_178 ?v_9 ?v_177) (or ?v_345 ?v_179 ?v_9 ?v_177) (or ?v_347 ?v_177 ?v_9 ?v_178) (or ?v_349 ?v_178 ?v_9 ?v_178) (or ?v_351 ?v_179 ?v_9 ?v_178) (or ?v_353 ?v_177 ?v_9 ?v_179) (or ?v_355 ?v_178 ?v_9 ?v_179) (or ?v_357 ?v_179 ?v_9 ?v_179) (or ?v_359 ?v_180 ?v_13 ?v_180) (or ?v_361 ?v_181 ?v_13 ?v_180) (or ?v_363 ?v_182 ?v_13 ?v_180) (or ?v_365 ?v_180 ?v_13 ?v_181) (or ?v_367 ?v_181 ?v_13 ?v_181) (or ?v_369 ?v_182 ?v_13 ?v_181) (or ?v_371 ?v_180 ?v_13 ?v_182) (or ?v_373 ?v_181 ?v_13 ?v_182) (or ?v_375 ?v_182 ?v_13 ?v_182) (p1 ?v_183 c15) (or (not (p4 (f8 c17 c21) ?v_184)) (not (= ?v_185 (f8 c17 c18))) (not (p4 ?v_184 ?v_185))) (or ?v_112 ?v_186 ?v_186) (or ?v_112 ?v_187 ?v_189) (or ?v_112 ?v_188 ?v_192) (or ?v_114 ?v_186 ?v_187) (or ?v_114 ?v_187 ?v_190) (or ?v_114 ?v_188 ?v_193) (or ?v_116 ?v_186 ?v_188) (or ?v_116 ?v_187 ?v_191) (or ?v_116 ?v_188 ?v_194) (or ?v_118 ?v_189 ?v_186) (or ?v_118 ?v_190 ?v_189) (or ?v_118 ?v_191 ?v_192) (or ?v_120 ?v_189 ?v_187) (or ?v_120 ?v_190 ?v_190) (or ?v_120 ?v_191 ?v_193) (or ?v_122 ?v_189 ?v_188) (or ?v_122 ?v_190 ?v_191) (or ?v_122 ?v_191 ?v_194) (or ?v_124 ?v_192 ?v_186) (or ?v_124 ?v_193 ?v_189) (or ?v_124 ?v_194 ?v_192) (or ?v_126 ?v_192 ?v_187) (or ?v_126 ?v_193 ?v_190) (or ?v_126 ?v_194 ?v_193) (or ?v_128 ?v_192 ?v_188) (or ?v_128 ?v_193 ?v_191) (or ?v_128 ?v_194 ?v_194) (or ?v_111 ?v_186) (or ?v_113 ?v_189) (or ?v_115 ?v_192) (or ?v_117 ?v_187) (or ?v_119 ?v_190) (or ?v_121 ?v_193) (or ?v_123 ?v_188) (or ?v_125 ?v_191) (or ?v_127 ?v_194) (or ?v_5 (p2 ?v_47 ?v_47) (not ?v_265) (not (p1 ?v_46 ?v_46))) (or ?v_5 (p2 ?v_47 ?v_50) (not ?v_266) (not (p1 ?v_46 ?v_49))) (or ?v_5 (p2 ?v_47 ?v_53) (not ?v_267) (not (p1 ?v_46 ?v_52))) (or ?v_5 (p2 ?v_50 ?v_47) (not ?v_268) (not (p1 ?v_49 ?v_46))) (or ?v_5 (p2 ?v_50 ?v_50) (not ?v_269) (not (p1 ?v_49 ?v_49))) (or ?v_5 (p2 ?v_50 ?v_53) (not ?v_270) (not (p1 ?v_49 ?v_52))) (or ?v_5 (p2 ?v_53 ?v_47) (not ?v_271) (not (p1 ?v_52 ?v_46))) (or ?v_5 (p2 ?v_53 ?v_50) (not ?v_272) (not (p1 ?v_52 ?v_49))) (or ?v_5 (p2 ?v_53 ?v_53) (not ?v_273) (not (p1 ?v_52 ?v_52))) (or ?v_9 (p2 ?v_56 ?v_56) (not ?v_274) (not (p1 ?v_55 ?v_55))) (or ?v_9 (p2 ?v_56 ?v_59) (not ?v_275) (not (p1 ?v_55 ?v_58))) (or ?v_9 (p2 ?v_56 ?v_62) (not ?v_276) (not (p1 ?v_55 ?v_61))) (or ?v_9 (p2 ?v_59 ?v_56) (not ?v_277) (not (p1 ?v_58 ?v_55))) (or ?v_9 (p2 ?v_59 ?v_59) (not ?v_278) (not (p1 ?v_58 ?v_58))) (or ?v_9 (p2 ?v_59 ?v_62) (not ?v_279) (not (p1 ?v_58 ?v_61))) (or ?v_9 (p2 ?v_62 ?v_56) (not ?v_280) (not (p1 ?v_61 ?v_55))) (or ?v_9 (p2 ?v_62 ?v_59) (not ?v_281) (not (p1 ?v_61 ?v_58))) (or ?v_9 (p2 ?v_62 ?v_62) (not ?v_282) (not (p1 ?v_61 ?v_61))) (or ?v_13 (p2 ?v_65 ?v_65) (not ?v_283) (not (p1 ?v_64 ?v_64))) (or ?v_13 (p2 ?v_65 ?v_68) (not ?v_284) (not (p1 ?v_64 ?v_67))) (or ?v_13 (p2 ?v_65 ?v_71) (not ?v_285) (not (p1 ?v_64 ?v_70))) (or ?v_13 (p2 ?v_68 ?v_65) (not ?v_286) (not (p1 ?v_67 ?v_64))) (or ?v_13 (p2 ?v_68 ?v_68) (not ?v_287) (not (p1 ?v_67 ?v_67))) (or ?v_13 (p2 ?v_68 ?v_71) (not ?v_288) (not (p1 ?v_67 ?v_70))) (or ?v_13 (p2 ?v_71 ?v_65) (not ?v_289) (not (p1 ?v_70 ?v_64))) (or ?v_13 (p2 ?v_71 ?v_68) (not ?v_290) (not (p1 ?v_70 ?v_67))) (or ?v_13 (p2 ?v_71 ?v_71) (not ?v_291) (not (p1 ?v_70 ?v_70))) (or ?v_84 (not (p3 ?v_86 ?v_86)) ?v_5 (not ?v_195) ?v_84 ?v_196) (or ?v_84 (not (p3 ?v_90 ?v_86)) ?v_5 (not ?v_197) ?v_87 ?v_198) (or ?v_84 (not (p3 ?v_92 ?v_86)) ?v_5 (not ?v_199) ?v_88 ?v_200) (or ?v_87 (not (p3 ?v_86 ?v_90)) ?v_5 (not ?v_201) ?v_84 ?v_202) (or ?v_87 (not (p3 ?v_90 ?v_90)) ?v_5 (not ?v_203) ?v_87 ?v_204) (or ?v_87 (not (p3 ?v_92 ?v_90)) ?v_5 (not ?v_205) ?v_88 ?v_206) (or ?v_88 (not (p3 ?v_86 ?v_92)) ?v_5 (not ?v_207) ?v_84 ?v_208) (or ?v_88 (not (p3 ?v_90 ?v_92)) ?v_5 (not ?v_209) ?v_87 ?v_210) (or ?v_88 (not (p3 ?v_92 ?v_92)) ?v_5 (not ?v_211) ?v_88 ?v_212) (or ?v_93 (not (p3 ?v_95 ?v_95)) ?v_9 (not ?v_213) ?v_93 ?v_214) (or ?v_93 (not (p3 ?v_99 ?v_95)) ?v_9 (not ?v_215) ?v_96 ?v_216) (or ?v_93 (not (p3 ?v_101 ?v_95)) ?v_9 (not ?v_217) ?v_97 ?v_218) (or ?v_96 (not (p3 ?v_95 ?v_99)) ?v_9 (not ?v_219) ?v_93 ?v_220) (or ?v_96 (not (p3 ?v_99 ?v_99)) ?v_9 (not ?v_221) ?v_96 ?v_222) (or ?v_96 (not (p3 ?v_101 ?v_99)) ?v_9 (not ?v_223) ?v_97 ?v_224) (or ?v_97 (not (p3 ?v_95 ?v_101)) ?v_9 (not ?v_225) ?v_93 ?v_226) (or ?v_97 (not (p3 ?v_99 ?v_101)) ?v_9 (not ?v_227) ?v_96 ?v_228) (or ?v_97 (not (p3 ?v_101 ?v_101)) ?v_9 (not ?v_229) ?v_97 ?v_230) (or ?v_102 (not (p3 ?v_104 ?v_104)) ?v_13 (not ?v_231) ?v_102 ?v_232) (or ?v_102 (not (p3 ?v_108 ?v_104)) ?v_13 (not ?v_233) ?v_105 ?v_234) (or ?v_102 (not (p3 ?v_110 ?v_104)) ?v_13 (not ?v_235) ?v_106 ?v_236) (or ?v_105 (not (p3 ?v_104 ?v_108)) ?v_13 (not ?v_237) ?v_102 ?v_238) (or ?v_105 (not (p3 ?v_108 ?v_108)) ?v_13 (not ?v_239) ?v_105 ?v_240) (or ?v_105 (not (p3 ?v_110 ?v_108)) ?v_13 (not ?v_241) ?v_106 ?v_242) (or ?v_106 (not (p3 ?v_104 ?v_110)) ?v_13 (not ?v_243) ?v_102 ?v_244) (or ?v_106 (not (p3 ?v_108 ?v_110)) ?v_13 (not ?v_245) ?v_105 ?v_246) (or ?v_106 (not (p3 ?v_110 ?v_110)) ?v_13 (not ?v_247) ?v_106 ?v_248) (p4 (f5 c17 c21) ?v_249) (or ?v_186 ?v_186) (or ?v_187 ?v_189) (or ?v_188 ?v_192) (or ?v_189 ?v_187) (or ?v_190 ?v_190) (or ?v_191 ?v_193) (or ?v_192 ?v_188) (or ?v_193 ?v_191) (or ?v_194 ?v_194) (or ?v_5 ?v_250 ?v_251 ?v_3) (or ?v_9 ?v_252 ?v_253 ?v_7) (or ?v_13 ?v_254 ?v_255 ?v_11) (or ?v_19 ?v_256) (or ?v_21 ?v_257) (or ?v_23 ?v_258) (or ?v_25 ?v_259) (or ?v_27 ?v_260) (or ?v_29 ?v_261) (or ?v_31 ?v_262) (or ?v_33 ?v_263) (or ?v_35 ?v_264) (or ?v_256 ?v_112) (or ?v_257 ?v_118) (or ?v_258 ?v_124) (or ?v_259 ?v_114) (or ?v_260 ?v_120) (or ?v_261 ?v_126) (or ?v_262 ?v_116) (or ?v_263 ?v_122) (or ?v_264 ?v_128) (or ?v_322 (not ?v_295) ?v_5 (not (= ?v_45 ?v_45))) (or ?v_324 (not ?v_296) ?v_5 (not (= ?v_45 ?v_48))) (or ?v_326 (not ?v_297) ?v_5 (not (= ?v_45 ?v_51))) (or ?v_328 (not ?v_298) ?v_5 (not (= ?v_48 ?v_45))) (or ?v_330 (not ?v_299) ?v_5 (not (= ?v_48 ?v_48))) (or ?v_332 (not ?v_300) ?v_5 (not (= ?v_48 ?v_51))) (or ?v_334 (not ?v_301) ?v_5 (not (= ?v_51 ?v_45))) (or ?v_336 (not ?v_302) ?v_5 (not (= ?v_51 ?v_48))) (or ?v_338 (not ?v_303) ?v_5 (not (= ?v_51 ?v_51))) (or ?v_340 (not ?v_304) ?v_9 (not (= ?v_54 ?v_54))) (or ?v_342 (not ?v_305) ?v_9 (not (= ?v_54 ?v_57))) (or ?v_344 (not ?v_306) ?v_9 (not (= ?v_54 ?v_60))) (or ?v_346 (not ?v_307) ?v_9 (not (= ?v_57 ?v_54))) (or ?v_348 (not ?v_308) ?v_9 (not (= ?v_57 ?v_57))) (or ?v_350 (not ?v_309) ?v_9 (not (= ?v_57 ?v_60))) (or ?v_352 (not ?v_310) ?v_9 (not (= ?v_60 ?v_54))) (or ?v_354 (not ?v_311) ?v_9 (not (= ?v_60 ?v_57))) (or ?v_356 (not ?v_312) ?v_9 (not (= ?v_60 ?v_60))) (or ?v_358 (not ?v_313) ?v_13 (not (= ?v_63 ?v_63))) (or ?v_360 (not ?v_314) ?v_13 (not (= ?v_63 ?v_66))) (or ?v_362 (not ?v_315) ?v_13 (not (= ?v_63 ?v_69))) (or ?v_364 (not ?v_316) ?v_13 (not (= ?v_66 ?v_63))) (or ?v_366 (not ?v_317) ?v_13 (not (= ?v_66 ?v_66))) (or ?v_368 (not ?v_318) ?v_13 (not (= ?v_66 ?v_69))) (or ?v_370 (not ?v_319) ?v_13 (not (= ?v_69 ?v_63))) (or ?v_372 (not ?v_320) ?v_13 (not (= ?v_69 ?v_66))) (or ?v_374 (not ?v_321) ?v_13 (not (= ?v_69 ?v_69))) (or ?v_5 (not (p4 ?v_129 ?v_129)) ?v_265) (or ?v_5 (not (p4 ?v_129 ?v_130)) ?v_266) (or ?v_5 (not (p4 ?v_129 ?v_131)) ?v_267) (or ?v_5 (not (p4 ?v_130 ?v_129)) ?v_268) (or ?v_5 (not (p4 ?v_130 ?v_130)) ?v_269) (or ?v_5 (not (p4 ?v_130 ?v_131)) ?v_270) (or ?v_5 (not (p4 ?v_131 ?v_129)) ?v_271) (or ?v_5 (not (p4 ?v_131 ?v_130)) ?v_272) (or ?v_5 (not (p4 ?v_131 ?v_131)) ?v_273) (or ?v_9 (not (p4 ?v_132 ?v_132)) ?v_274) (or ?v_9 (not (p4 ?v_132 ?v_133)) ?v_275) (or ?v_9 (not (p4 ?v_132 ?v_134)) ?v_276) (or ?v_9 (not (p4 ?v_133 ?v_132)) ?v_277) (or ?v_9 (not (p4 ?v_133 ?v_133)) ?v_278) (or ?v_9 (not (p4 ?v_133 ?v_134)) ?v_279) (or ?v_9 (not (p4 ?v_134 ?v_132)) ?v_280) (or ?v_9 (not (p4 ?v_134 ?v_133)) ?v_281) (or ?v_9 (not (p4 ?v_134 ?v_134)) ?v_282) (or ?v_13 (not (p4 ?v_135 ?v_135)) ?v_283) (or ?v_13 (not (p4 ?v_135 ?v_136)) ?v_284) (or ?v_13 (not (p4 ?v_135 ?v_137)) ?v_285) (or ?v_13 (not (p4 ?v_136 ?v_135)) ?v_286) (or ?v_13 (not (p4 ?v_136 ?v_136)) ?v_287) (or ?v_13 (not (p4 ?v_136 ?v_137)) ?v_288) (or ?v_13 (not (p4 ?v_137 ?v_135)) ?v_289) (or ?v_13 (not (p4 ?v_137 ?v_136)) ?v_290) (or ?v_13 (not (p4 ?v_137 ?v_137)) ?v_291) (or ?v_72 ?v_186) (or ?v_73 ?v_187) (or ?v_74 ?v_188) (or ?v_75 ?v_189) (or ?v_76 ?v_190) (or ?v_77 ?v_191) (or ?v_78 ?v_192) (or ?v_79 ?v_193) (or ?v_80 ?v_194) (or ?v_292 ?v_81) (or ?v_293 ?v_82) (or ?v_294 ?v_83) (or ?v_295 ?v_5) (or ?v_296 ?v_5) (or ?v_297 ?v_5) (or ?v_298 ?v_5) (or ?v_299 ?v_5) (or ?v_300 ?v_5) (or ?v_301 ?v_5) (or ?v_302 ?v_5) (or ?v_303 ?v_5) (or ?v_304 ?v_9) (or ?v_305 ?v_9) (or ?v_306 ?v_9) (or ?v_307 ?v_9) (or ?v_308 ?v_9) (or ?v_309 ?v_9) (or ?v_310 ?v_9) (or ?v_311 ?v_9) (or ?v_312 ?v_9) (or ?v_313 ?v_13) (or ?v_314 ?v_13) (or ?v_315 ?v_13) (or ?v_316 ?v_13) (or ?v_317 ?v_13) (or ?v_318 ?v_13) (or ?v_319 ?v_13) (or ?v_320 ?v_13) (or ?v_321 ?v_13) (or (not ?v_322) (not ?v_376) ?v_5 ?v_323 ?v_84 ?v_84) (or (not ?v_324) (not ?v_378) ?v_5 ?v_325 ?v_84 ?v_87) (or (not ?v_326) (not ?v_380) ?v_5 ?v_327 ?v_84 ?v_88) (or (not ?v_328) (not ?v_382) ?v_5 ?v_329 ?v_87 ?v_84) (or (not ?v_330) (not ?v_384) ?v_5 ?v_331 ?v_87 ?v_87) (or (not ?v_332) (not ?v_386) ?v_5 ?v_333 ?v_87 ?v_88) (or (not ?v_334) (not ?v_388) ?v_5 ?v_335 ?v_88 ?v_84) (or (not ?v_336) (not ?v_390) ?v_5 ?v_337 ?v_88 ?v_87) (or (not ?v_338) (not ?v_392) ?v_5 ?v_339 ?v_88 ?v_88) (or (not ?v_340) (not ?v_394) ?v_9 ?v_341 ?v_93 ?v_93) (or (not ?v_342) (not ?v_396) ?v_9 ?v_343 ?v_93 ?v_96) (or (not ?v_344) (not ?v_398) ?v_9 ?v_345 ?v_93 ?v_97) (or (not ?v_346) (not ?v_400) ?v_9 ?v_347 ?v_96 ?v_93) (or (not ?v_348) (not ?v_402) ?v_9 ?v_349 ?v_96 ?v_96) (or (not ?v_350) (not ?v_404) ?v_9 ?v_351 ?v_96 ?v_97) (or (not ?v_352) (not ?v_406) ?v_9 ?v_353 ?v_97 ?v_93) (or (not ?v_354) (not ?v_408) ?v_9 ?v_355 ?v_97 ?v_96) (or (not ?v_356) (not ?v_410) ?v_9 ?v_357 ?v_97 ?v_97) (or (not ?v_358) (not ?v_412) ?v_13 ?v_359 ?v_102 ?v_102) (or (not ?v_360) (not ?v_414) ?v_13 ?v_361 ?v_102 ?v_105) (or (not ?v_362) (not ?v_416) ?v_13 ?v_363 ?v_102 ?v_106) (or (not ?v_364) (not ?v_418) ?v_13 ?v_365 ?v_105 ?v_102) (or (not ?v_366) (not ?v_420) ?v_13 ?v_367 ?v_105 ?v_105) (or (not ?v_368) (not ?v_422) ?v_13 ?v_369 ?v_105 ?v_106) (or (not ?v_370) (not ?v_424) ?v_13 ?v_371 ?v_106 ?v_102) (or (not ?v_372) (not ?v_426) ?v_13 ?v_373 ?v_106 ?v_105) (or (not ?v_374) (not ?v_428) ?v_13 ?v_375 ?v_106 ?v_106) (or ?v_174 ?v_84 ?v_5 (p4 ?v_85 ?v_85)) (or ?v_174 ?v_87 ?v_5 (p4 ?v_89 ?v_85)) (or ?v_174 ?v_88 ?v_5 (p4 ?v_91 ?v_85)) (or ?v_175 ?v_84 ?v_5 (p4 ?v_85 ?v_89)) (or ?v_175 ?v_87 ?v_5 (p4 ?v_89 ?v_89)) (or ?v_175 ?v_88 ?v_5 (p4 ?v_91 ?v_89)) (or ?v_176 ?v_84 ?v_5 (p4 ?v_85 ?v_91)) (or ?v_176 ?v_87 ?v_5 (p4 ?v_89 ?v_91)) (or ?v_176 ?v_88 ?v_5 (p4 ?v_91 ?v_91)) (or ?v_177 ?v_93 ?v_9 (p4 ?v_94 ?v_94)) (or ?v_177 ?v_96 ?v_9 (p4 ?v_98 ?v_94)) (or ?v_177 ?v_97 ?v_9 (p4 ?v_100 ?v_94)) (or ?v_178 ?v_93 ?v_9 (p4 ?v_94 ?v_98)) (or ?v_178 ?v_96 ?v_9 (p4 ?v_98 ?v_98)) (or ?v_178 ?v_97 ?v_9 (p4 ?v_100 ?v_98)) (or ?v_179 ?v_93 ?v_9 (p4 ?v_94 ?v_100)) (or ?v_179 ?v_96 ?v_9 (p4 ?v_98 ?v_100)) (or ?v_179 ?v_97 ?v_9 (p4 ?v_100 ?v_100)) (or ?v_180 ?v_102 ?v_13 (p4 ?v_103 ?v_103)) (or ?v_180 ?v_105 ?v_13 (p4 ?v_107 ?v_103)) (or ?v_180 ?v_106 ?v_13 (p4 ?v_109 ?v_103)) (or ?v_181 ?v_102 ?v_13 (p4 ?v_103 ?v_107)) (or ?v_181 ?v_105 ?v_13 (p4 ?v_107 ?v_107)) (or ?v_181 ?v_106 ?v_13 (p4 ?v_109 ?v_107)) (or ?v_182 ?v_102 ?v_13 (p4 ?v_103 ?v_109)) (or ?v_182 ?v_105 ?v_13 (p4 ?v_107 ?v_109)) (or ?v_182 ?v_106 ?v_13 (p4 ?v_109 ?v_109)) (p14 c17) (or ?v_377 ?v_5) (or ?v_379 ?v_5) (or ?v_381 ?v_5) (or ?v_383 ?v_5) (or ?v_385 ?v_5) (or ?v_387 ?v_5) (or ?v_389 ?v_5) (or ?v_391 ?v_5) (or ?v_393 ?v_5) (or ?v_395 ?v_9) (or ?v_397 ?v_9) (or ?v_399 ?v_9) (or ?v_401 ?v_9) (or ?v_403 ?v_9) (or ?v_405 ?v_9) (or ?v_407 ?v_9) (or ?v_409 ?v_9) (or ?v_411 ?v_9) (or ?v_413 ?v_13) (or ?v_415 ?v_13) (or ?v_417 ?v_13) (or ?v_419 ?v_13) (or ?v_421 ?v_13) (or ?v_423 ?v_13) (or ?v_425 ?v_13) (or ?v_427 ?v_13) (or ?v_429 ?v_13) (or ?v_5 ?v_376 (not ?v_377)) (or ?v_5 ?v_378 (not ?v_379)) (or ?v_5 ?v_380 (not ?v_381)) (or ?v_5 ?v_382 (not ?v_383)) (or ?v_5 ?v_384 (not ?v_385)) (or ?v_5 ?v_386 (not ?v_387)) (or ?v_5 ?v_388 (not ?v_389)) (or ?v_5 ?v_390 (not ?v_391)) (or ?v_5 ?v_392 (not ?v_393)) (or ?v_9 ?v_394 (not ?v_395)) (or ?v_9 ?v_396 (not ?v_397)) (or ?v_9 ?v_398 (not ?v_399)) (or ?v_9 ?v_400 (not ?v_401)) (or ?v_9 ?v_402 (not ?v_403)) (or ?v_9 ?v_404 (not ?v_405)) (or ?v_9 ?v_406 (not ?v_407)) (or ?v_9 ?v_408 (not ?v_409)) (or ?v_9 ?v_410 (not ?v_411)) (or ?v_13 ?v_412 (not ?v_413)) (or ?v_13 ?v_414 (not ?v_415)) (or ?v_13 ?v_416 (not ?v_417)) (or ?v_13 ?v_418 (not ?v_419)) (or ?v_13 ?v_420 (not ?v_421)) (or ?v_13 ?v_422 (not ?v_423)) (or ?v_13 ?v_424 (not ?v_425)) (or ?v_13 ?v_426 (not ?v_427)) (or ?v_13 ?v_428 (not ?v_429)) (or (= ?v_129 c_0) (= ?v_129 c_1) (= ?v_129 c_2)) (or (= ?v_130 c_0) (= ?v_130 c_1) (= ?v_130 c_2)) (or (= ?v_131 c_0) (= ?v_131 c_1) (= ?v_131 c_2)) (or (= ?v_132 c_0) (= ?v_132 c_1) (= ?v_132 c_2)) (or (= ?v_133 c_0) (= ?v_133 c_1) (= ?v_133 c_2)) (or (= ?v_134 c_0) (= ?v_134 c_1) (= ?v_134 c_2)) (or (= ?v_135 c_0) (= ?v_135 c_1) (= ?v_135 c_2)) (or (= ?v_136 c_0) (= ?v_136 c_1) (= ?v_136 c_2)) (or (= ?v_137 c_0) (= ?v_137 c_1) (= ?v_137 c_2)) (or (= ?v_45 c_0) (= ?v_45 c_1) (= ?v_45 c_2)) (or (= ?v_48 c_0) (= ?v_48 c_1) (= ?v_48 c_2)) (or (= ?v_51 c_0) (= ?v_51 c_1) (= ?v_51 c_2)) (or (= ?v_54 c_0) (= ?v_54 c_1) (= ?v_54 c_2)) (or (= ?v_57 c_0) (= ?v_57 c_1) (= ?v_57 c_2)) (or (= ?v_60 c_0) (= ?v_60 c_1) (= ?v_60 c_2)) (or (= ?v_63 c_0) (= ?v_63 c_1) (= ?v_63 c_2)) (or (= ?v_66 c_0) (= ?v_66 c_1) (= ?v_66 c_2)) (or (= ?v_69 c_0) (= ?v_69 c_1) (= ?v_69 c_2)) (or (= ?v_46 c_0) (= ?v_46 c_1) (= ?v_46 c_2)) (or (= ?v_49 c_0) (= ?v_49 c_1) (= ?v_49 c_2)) (or (= ?v_52 c_0) (= ?v_52 c_1) (= ?v_52 c_2)) (or (= ?v_55 c_0) (= ?v_55 c_1) (= ?v_55 c_2)) (or (= ?v_58 c_0) (= ?v_58 c_1) (= ?v_58 c_2)) (or (= ?v_61 c_0) (= ?v_61 c_1) (= ?v_61 c_2)) (or (= ?v_64 c_0) (= ?v_64 c_1) (= ?v_64 c_2)) (or (= ?v_67 c_0) (= ?v_67 c_1) (= ?v_67 c_2)) (or (= ?v_70 c_0) (= ?v_70 c_1) (= ?v_70 c_2)) (or (= ?v_47 c_0) (= ?v_47 c_1) (= ?v_47 c_2)) (or (= ?v_50 c_0) (= ?v_50 c_1) (= ?v_50 c_2)) (or (= ?v_53 c_0) (= ?v_53 c_1) (= ?v_53 c_2)) (or (= ?v_56 c_0) (= ?v_56 c_1) (= ?v_56 c_2)) (or (= ?v_59 c_0) (= ?v_59 c_1) (= ?v_59 c_2)) (or (= ?v_62 c_0) (= ?v_62 c_1) (= ?v_62 c_2)) (or (= ?v_65 c_0) (= ?v_65 c_1) (= ?v_65 c_2)) (or (= ?v_68 c_0) (= ?v_68 c_1) (= ?v_68 c_2)) (or (= ?v_71 c_0) (= ?v_71 c_1) (= ?v_71 c_2)) (or (= ?v_85 c_0) (= ?v_85 c_1) (= ?v_85 c_2)) (or (= ?v_89 c_0) (= ?v_89 c_1) (= ?v_89 c_2)) (or (= ?v_91 c_0) (= ?v_91 c_1) (= ?v_91 c_2)) (or (= ?v_94 c_0) (= ?v_94 c_1) (= ?v_94 c_2)) (or (= ?v_98 c_0) (= ?v_98 c_1) (= ?v_98 c_2)) (or (= ?v_100 c_0) (= ?v_100 c_1) (= ?v_100 c_2)) (or (= ?v_103 c_0) (= ?v_103 c_1) (= ?v_103 c_2)) (or (= ?v_107 c_0) (= ?v_107 c_1) (= ?v_107 c_2)) (or (= ?v_109 c_0) (= ?v_109 c_1) (= ?v_109 c_2)) (or (= ?v_86 c_0) (= ?v_86 c_1) (= ?v_86 c_2)) (or (= ?v_90 c_0) (= ?v_90 c_1) (= ?v_90 c_2)) (or (= ?v_92 c_0) (= ?v_92 c_1) (= ?v_92 c_2)) (or (= ?v_95 c_0) (= ?v_95 c_1) (= ?v_95 c_2)) (or (= ?v_99 c_0) (= ?v_99 c_1) (= ?v_99 c_2)) (or (= ?v_101 c_0) (= ?v_101 c_1) (= ?v_101 c_2)) (or (= ?v_104 c_0) (= ?v_104 c_1) (= ?v_104 c_2)) (or (= ?v_108 c_0) (= ?v_108 c_1) (= ?v_108 c_2)) (or (= ?v_110 c_0) (= ?v_110 c_1) (= ?v_110 c_2)) (or (= ?v_138 c_0) (= ?v_138 c_1) (= ?v_138 c_2)) (or (= ?v_142 c_0) (= ?v_142 c_1) (= ?v_142 c_2)) (or (= ?v_145 c_0) (= ?v_145 c_1) (= ?v_145 c_2)) (or (= ?v_150 c_0) (= ?v_150 c_1) (= ?v_150 c_2)) (or (= ?v_154 c_0) (= ?v_154 c_1) (= ?v_154 c_2)) (or (= ?v_157 c_0) (= ?v_157 c_1) (= ?v_157 c_2)) (or (= ?v_162 c_0) (= ?v_162 c_1) (= ?v_162 c_2)) (or (= ?v_166 c_0) (= ?v_166 c_1) (= ?v_166 c_2)) (or (= ?v_169 c_0) (= ?v_169 c_1) (= ?v_169 c_2)) (or (= ?v_4 c_0) (= ?v_4 c_1) (= ?v_4 c_2)) (or (= ?v_8 c_0) (= ?v_8 c_1) (= ?v_8 c_2)) (or (= ?v_12 c_0) (= ?v_12 c_1) (= ?v_12 c_2)) (or (= c17 c_0) (= c17 c_1) (= c17 c_2)) (or (= c18 c_0) (= c18 c_1) (= c18 c_2)) (or (= c19 c_0) (= c19 c_1) (= c19 c_2)) (or (= c15 c_0) (= c15 c_1) (= c15 c_2)) (or (= c20 c_0) (= c20 c_1) (= c20 c_2)) (or (= c21 c_0) (= c21 c_1) (= c21 c_2)))))))))))))))))))))))))))))))))))))))))))))
(check-sat)
(exit)
